logs/miss/ip/miss-05-15-2.lp
\ LP format - for model browsing. Use MPS format to capture full model detail.
Minimize
  z0 + z1 + z2 + z3 + z4 + z5
Subject To
 R0: x0,1_2 + x0,1_12 + x0,1_14 + x0,1_19 - z1 <= 0
 R1: x0,2_2 + x0,2_12 + x0,2_14 + x0,2_19 - z2 <= 0
 R2: x0,3_2 + x0,3_12 + x0,3_14 + x0,3_19 - z3 <= 0
 R3: x0,4_2 + x0,4_12 + x0,4_14 + x0,4_19 - z4 <= 0
 R4: x0,5_2 + x0,5_12 + x0,5_14 + x0,5_19 - z5 <= 0
 R5: x1,2_2 + x1,2_12 + x1,2_14 + x1,2_19 - z2 <= 0
 R6: x1,3_2 + x1,3_12 + x1,3_14 + x1,3_19 - z3 <= 0
 R7: x1,4_2 + x1,4_12 + x1,4_14 + x1,4_19 - z4 <= 0
 R8: x1,5_2 + x1,5_12 + x1,5_14 + x1,5_19 - z5 <= 0
 R9: x2,3_2 + x2,3_12 + x2,3_14 + x2,3_19 - z3 <= 0
 R10: x2,4_2 + x2,4_12 + x2,4_14 + x2,4_19 - z4 <= 0
 R11: x2,5_2 + x2,5_12 + x2,5_14 + x2,5_19 - z5 <= 0
 R12: x3,4_2 + x3,4_12 + x3,4_14 + x3,4_19 - z4 <= 0
 R13: x3,5_2 + x3,5_12 + x3,5_14 + x3,5_19 - z5 <= 0
 R14: x4,5_2 + x4,5_12 + x4,5_14 + x4,5_19 - z5 <= 0
 R15: x0,1_2 + x0,2_2 + x0,3_2 + x0,4_2 + x0,5_2 + x1,2_2 + x1,3_2 + x1,4_2
   + x1,5_2 + x2,3_2 + x2,4_2 + x2,5_2 + x3,4_2 + x3,5_2 + x4,5_2 = 1
 R16: x0,1_12 + x0,2_12 + x0,3_12 + x0,4_12 + x0,5_12 + x1,2_12 + x1,3_12
   + x1,4_12 + x1,5_12 + x2,3_12 + x2,4_12 + x2,5_12 + x3,4_12 + x3,5_12
   + x4,5_12 = 1
 R17: x0,1_14 + x0,2_14 + x0,3_14 + x0,4_14 + x0,5_14 + x1,2_14 + x1,3_14
   + x1,4_14 + x1,5_14 + x2,3_14 + x2,4_14 + x2,5_14 + x3,4_14 + x3,5_14
   + x4,5_14 = 1
 R18: x0,1_19 + x0,2_19 + x0,3_19 + x0,4_19 + x0,5_19 + x1,2_19 + x1,3_19
   + x1,4_19 + x1,5_19 + x2,3_19 + x2,4_19 + x2,5_19 + x3,4_19 + x3,5_19
   + x4,5_19 = 2
 R19: p0 - p1 <= -1
 R20: - 2 x0,1_2 - p0 + p1 >= 0
 R21: 66 x0,1_2 - p0 + p1 <= 68
 R22: - 12 x0,1_12 - p0 + p1 >= 0
 R23: 66 x0,1_12 - p0 + p1 <= 78
 R24: - 14 x0,1_14 - p0 + p1 >= 0
 R25: 66 x0,1_14 - p0 + p1 <= 80
 R26: - 19 x0,1_19 - p0 + p1 >= 0
 R27: 66 x0,1_19 - p0 + p1 <= 85
 R28: p0 - p2 <= -1
 R29: - 2 x0,2_2 - p0 + p2 >= 0
 R30: 66 x0,2_2 - p0 + p2 <= 68
 R31: - 12 x0,2_12 - p0 + p2 >= 0
 R32: 66 x0,2_12 - p0 + p2 <= 78
 R33: - 14 x0,2_14 - p0 + p2 >= 0
 R34: 66 x0,2_14 - p0 + p2 <= 80
 R35: - 19 x0,2_19 - p0 + p2 >= 0
 R36: 66 x0,2_19 - p0 + p2 <= 85
 R37: p0 - p3 <= -1
 R38: - 2 x0,3_2 - p0 + p3 >= 0
 R39: 66 x0,3_2 - p0 + p3 <= 68
 R40: - 12 x0,3_12 - p0 + p3 >= 0
 R41: 66 x0,3_12 - p0 + p3 <= 78
 R42: - 14 x0,3_14 - p0 + p3 >= 0
 R43: 66 x0,3_14 - p0 + p3 <= 80
 R44: - 19 x0,3_19 - p0 + p3 >= 0
 R45: 66 x0,3_19 - p0 + p3 <= 85
 R46: p0 - p4 <= -1
 R47: - 2 x0,4_2 - p0 + p4 >= 0
 R48: 66 x0,4_2 - p0 + p4 <= 68
 R49: - 12 x0,4_12 - p0 + p4 >= 0
 R50: 66 x0,4_12 - p0 + p4 <= 78
 R51: - 14 x0,4_14 - p0 + p4 >= 0
 R52: 66 x0,4_14 - p0 + p4 <= 80
 R53: - 19 x0,4_19 - p0 + p4 >= 0
 R54: 66 x0,4_19 - p0 + p4 <= 85
 R55: p0 - p5 <= -1
 R56: - 2 x0,5_2 - p0 + p5 >= 0
 R57: 66 x0,5_2 - p0 + p5 <= 68
 R58: - 12 x0,5_12 - p0 + p5 >= 0
 R59: 66 x0,5_12 - p0 + p5 <= 78
 R60: - 14 x0,5_14 - p0 + p5 >= 0
 R61: 66 x0,5_14 - p0 + p5 <= 80
 R62: - 19 x0,5_19 - p0 + p5 >= 0
 R63: 66 x0,5_19 - p0 + p5 <= 85
 R64: p1 - p2 <= -1
 R65: - 2 x1,2_2 - p1 + p2 >= 0
 R66: 66 x1,2_2 - p1 + p2 <= 68
 R67: - 12 x1,2_12 - p1 + p2 >= 0
 R68: 66 x1,2_12 - p1 + p2 <= 78
 R69: - 14 x1,2_14 - p1 + p2 >= 0
 R70: 66 x1,2_14 - p1 + p2 <= 80
 R71: - 19 x1,2_19 - p1 + p2 >= 0
 R72: 66 x1,2_19 - p1 + p2 <= 85
 R73: p1 - p3 <= -1
 R74: - 2 x1,3_2 - p1 + p3 >= 0
 R75: 66 x1,3_2 - p1 + p3 <= 68
 R76: - 12 x1,3_12 - p1 + p3 >= 0
 R77: 66 x1,3_12 - p1 + p3 <= 78
 R78: - 14 x1,3_14 - p1 + p3 >= 0
 R79: 66 x1,3_14 - p1 + p3 <= 80
 R80: - 19 x1,3_19 - p1 + p3 >= 0
 R81: 66 x1,3_19 - p1 + p3 <= 85
 R82: p1 - p4 <= -1
 R83: - 2 x1,4_2 - p1 + p4 >= 0
 R84: 66 x1,4_2 - p1 + p4 <= 68
 R85: - 12 x1,4_12 - p1 + p4 >= 0
 R86: 66 x1,4_12 - p1 + p4 <= 78
 R87: - 14 x1,4_14 - p1 + p4 >= 0
 R88: 66 x1,4_14 - p1 + p4 <= 80
 R89: - 19 x1,4_19 - p1 + p4 >= 0
 R90: 66 x1,4_19 - p1 + p4 <= 85
 R91: p1 - p5 <= -1
 R92: - 2 x1,5_2 - p1 + p5 >= 0
 R93: 66 x1,5_2 - p1 + p5 <= 68
 R94: - 12 x1,5_12 - p1 + p5 >= 0
 R95: 66 x1,5_12 - p1 + p5 <= 78
 R96: - 14 x1,5_14 - p1 + p5 >= 0
 R97: 66 x1,5_14 - p1 + p5 <= 80
 R98: - 19 x1,5_19 - p1 + p5 >= 0
 R99: 66 x1,5_19 - p1 + p5 <= 85
 R100: p2 - p3 <= -1
 R101: - 2 x2,3_2 - p2 + p3 >= 0
 R102: 66 x2,3_2 - p2 + p3 <= 68
 R103: - 12 x2,3_12 - p2 + p3 >= 0
 R104: 66 x2,3_12 - p2 + p3 <= 78
 R105: - 14 x2,3_14 - p2 + p3 >= 0
 R106: 66 x2,3_14 - p2 + p3 <= 80
 R107: - 19 x2,3_19 - p2 + p3 >= 0
 R108: 66 x2,3_19 - p2 + p3 <= 85
 R109: p2 - p4 <= -1
 R110: - 2 x2,4_2 - p2 + p4 >= 0
 R111: 66 x2,4_2 - p2 + p4 <= 68
 R112: - 12 x2,4_12 - p2 + p4 >= 0
 R113: 66 x2,4_12 - p2 + p4 <= 78
 R114: - 14 x2,4_14 - p2 + p4 >= 0
 R115: 66 x2,4_14 - p2 + p4 <= 80
 R116: - 19 x2,4_19 - p2 + p4 >= 0
 R117: 66 x2,4_19 - p2 + p4 <= 85
 R118: p2 - p5 <= -1
 R119: - 2 x2,5_2 - p2 + p5 >= 0
 R120: 66 x2,5_2 - p2 + p5 <= 68
 R121: - 12 x2,5_12 - p2 + p5 >= 0
 R122: 66 x2,5_12 - p2 + p5 <= 78
 R123: - 14 x2,5_14 - p2 + p5 >= 0
 R124: 66 x2,5_14 - p2 + p5 <= 80
 R125: - 19 x2,5_19 - p2 + p5 >= 0
 R126: 66 x2,5_19 - p2 + p5 <= 85
 R127: p3 - p4 <= -1
 R128: - 2 x3,4_2 - p3 + p4 >= 0
 R129: 66 x3,4_2 - p3 + p4 <= 68
 R130: - 12 x3,4_12 - p3 + p4 >= 0
 R131: 66 x3,4_12 - p3 + p4 <= 78
 R132: - 14 x3,4_14 - p3 + p4 >= 0
 R133: 66 x3,4_14 - p3 + p4 <= 80
 R134: - 19 x3,4_19 - p3 + p4 >= 0
 R135: 66 x3,4_19 - p3 + p4 <= 85
 R136: p3 - p5 <= -1
 R137: - 2 x3,5_2 - p3 + p5 >= 0
 R138: 66 x3,5_2 - p3 + p5 <= 68
 R139: - 12 x3,5_12 - p3 + p5 >= 0
 R140: 66 x3,5_12 - p3 + p5 <= 78
 R141: - 14 x3,5_14 - p3 + p5 >= 0
 R142: 66 x3,5_14 - p3 + p5 <= 80
 R143: - 19 x3,5_19 - p3 + p5 >= 0
 R144: 66 x3,5_19 - p3 + p5 <= 85
 R145: p4 - p5 <= -1
 R146: - 2 x4,5_2 - p4 + p5 >= 0
 R147: 66 x4,5_2 - p4 + p5 <= 68
 R148: - 12 x4,5_12 - p4 + p5 >= 0
 R149: 66 x4,5_12 - p4 + p5 <= 78
 R150: - 14 x4,5_14 - p4 + p5 >= 0
 R151: 66 x4,5_14 - p4 + p5 <= 80
 R152: - 19 x4,5_19 - p4 + p5 >= 0
 R153: 66 x4,5_19 - p4 + p5 <= 85
 R154: z0 - z1 >= 0
 R155: z1 - z2 >= 0
 R156: z2 - z3 >= 0
 R157: z3 - z4 >= 0
 R158: z4 - z5 >= 0
Bounds
Binaries
 x0,1_2 x0,1_12 x0,1_14 x0,1_19 x0,2_2 x0,2_12 x0,2_14 x0,2_19 x0,3_2
 x0,3_12 x0,3_14 x0,3_19 x0,4_2 x0,4_12 x0,4_14 x0,4_19 x0,5_2 x0,5_12
 x0,5_14 x0,5_19 x1,2_2 x1,2_12 x1,2_14 x1,2_19 x1,3_2 x1,3_12 x1,3_14
 x1,3_19 x1,4_2 x1,4_12 x1,4_14 x1,4_19 x1,5_2 x1,5_12 x1,5_14 x1,5_19
 x2,3_2 x2,3_12 x2,3_14 x2,3_19 x2,4_2 x2,4_12 x2,4_14 x2,4_19 x2,5_2
 x2,5_12 x2,5_14 x2,5_19 x3,4_2 x3,4_12 x3,4_14 x3,4_19 x3,5_2 x3,5_12
 x3,5_14 x3,5_19 x4,5_2 x4,5_12 x4,5_14 x4,5_19 z0 z1 z2 z3 z4 z5
Generals
 p0 p1 p2 p3 p4 p5
End
