logs/miss/ip/miss-05-15-2.sol
# Objective value = 5
x0,1_2 1
x0,1_12 0
x0,1_14 0
x0,1_19 0
x0,2_2 0
x0,2_12 0
x0,2_14 1
x0,2_19 0
x0,3_2 0
x0,3_12 0
x0,3_14 0
x0,3_19 0
x0,4_2 0
x0,4_12 0
x0,4_14 0
x0,4_19 0
x0,5_2 0
x0,5_12 0
x0,5_14 0
x0,5_19 0
x1,2_2 0
x1,2_12 1
x1,2_14 0
x1,2_19 0
x1,3_2 0
x1,3_12 0
x1,3_14 0
x1,3_19 0
x1,4_2 0
x1,4_12 0
x1,4_14 0
x1,4_19 0
x1,5_2 0
x1,5_12 0
x1,5_14 0
x1,5_19 0
x2,3_2 0
x2,3_12 0
x2,3_14 0
x2,3_19 1
x2,4_2 0
x2,4_12 0
x2,4_14 0
x2,4_19 0
x2,5_2 0
x2,5_12 0
x2,5_14 0
x2,5_19 0
x3,4_2 0
x3,4_12 0
x3,4_14 0
x3,4_19 1
x3,5_2 0
x3,5_12 0
x3,5_14 0
x3,5_19 0
x4,5_2 0
x4,5_12 0
x4,5_14 0
x4,5_19 0
z0 1
z1 1
z2 1
z3 1
z4 1
z5 0
p0 0
p1 2
p2 14
p3 33
p4 52
p5 53
