logs/miss/ip/miss-05-15-2.log

Gurobi 8.1.1 (win64) logging started 11/24/19 13:08:26

Changed value of parameter LogFile to logs/miss/ip/miss-05-15-2.log
   Prev: gurobi.log  Default: 
Changed value of parameter LogToConsole to 0
   Prev: 1  Min: 0  Max: 1  Default: 1
Changed value of parameter TimeLimit to 3600.0
   Prev: 1e+100  Min: 0.0  Max: 1e+100  Default: 1e+100
Optimize a model with 159 rows, 72 columns and 535 nonzeros
Variable types: 0 continuous, 72 integer (66 binary)
Coefficient statistics:
  Matrix range     [1e+00, 7e+01]
  Objective range  [1e+00, 1e+00]
  Bounds range     [1e+00, 1e+00]
  RHS range        [1e+00, 9e+01]
Presolve removed 3 rows and 3 columns
Presolve time: 0.01s
Presolved: 156 rows, 69 columns, 526 nonzeros
Variable types: 0 continuous, 69 integer (63 binary)

Root relaxation: objective 3.500000e+00, 63 iterations, 0.00 seconds

    Nodes    |    Current Node    |     Objective Bounds      |     Work
 Expl Unexpl |  Obj  Depth IntInf | Incumbent    BestBd   Gap | It/Node Time

     0     0    3.50000    0   18          -    3.50000      -     -    0s
H    0     0                       6.0000000    3.50000  41.7%     -    0s
H    0     0                       5.0000000    3.50000  30.0%     -    0s
     0     0    4.00000    0    2    5.00000    4.00000  20.0%     -    0s
     0     0    4.00000    0    2    5.00000    4.00000  20.0%     -    0s
     0     0    4.00000    0   12    5.00000    4.00000  20.0%     -    0s
     0     0    4.00000    0   14    5.00000    4.00000  20.0%     -    0s
     0     0    4.00000    0   13    5.00000    4.00000  20.0%     -    0s
     0     0    4.00000    0    5    5.00000    4.00000  20.0%     -    0s
     0     0    4.00000    0    5    5.00000    4.00000  20.0%     -    0s
     0     2    4.00000    0    5    5.00000    4.00000  20.0%     -    0s

Cutting planes:
  Gomory: 3
  MIR: 5
  StrongCG: 1

Explored 111 nodes (764 simplex iterations) in 0.05 seconds
Thread count was 4 (of 4 available processors)

Solution count 2: 5 6 

Optimal solution found (tolerance 1.00e-04)
Best objective 5.000000000000e+00, best bound 5.000000000000e+00, gap 0.0000%
